p cnf 256 316
-1 30 123 -2 221 0 
-3 221 0 
-4 221 0 
-5 221 0 
-6 20 24 64 73 88 126 140 145 148 152 187 196 202 209 -7 45 46 85 104 113 151 161 189 222 0 
-8 102 223 0 
-9 37 66 93 95 107 116 175 208 212 218 222 0 
-8 102 224 0 
-10 124 225 0 
-11 -12 62 226 0 
-13 19 221 0 
-14 227 0 
-6 20 24 64 73 88 126 140 145 148 152 187 196 202 209 -15 48 52 68 79 89 91 109 122 132 174 222 0 
-16 228 0 
-10 124 -17 84 90 103 106 138 139 172 183 186 199 221 0 
-18 21 34 35 76 77 78 156 229 0 
-6 20 24 64 73 88 126 140 145 148 152 187 196 202 209 222 0 
-19 13 -20 6 24 64 73 88 126 140 145 148 152 187 196 202 209 -21 18 34 35 76 77 78 156 227 0 
-22 230 0 
-23 143 231 0 
-10 124 232 0 
-24 6 20 64 73 88 126 140 145 148 152 187 196 202 209 233 0 
-11 -25 226 0 
-26 -27 -28 231 0 
-27 -28 221 0 
-29 234 0 
-29 235 0 
-30 1 123 -31 221 0 
-32 121 217 220 221 0 
-33 221 0 
-34 18 21 35 76 77 78 156 221 0 
-35 18 21 34 76 77 78 156 234 0 
-36 226 0 
-37 9 66 93 95 107 116 175 208 212 218 236 0 
-38 226 0 
-38 228 0 
-39 236 0 
-38 -36 228 0 
-17 84 90 103 106 138 139 172 183 186 199 221 0 
-40 101 -13 19 -15 48 52 68 79 89 91 109 122 132 174 222 0 
-41 44 -42 221 0 
-43 -44 41 221 0 
-45 7 46 85 104 113 151 161 189 221 0 
-46 7 45 85 104 113 151 161 189 -28 237 0 
-10 124 222 0 
-19 13 -28 231 0 
-33 -28 231 0 
-32 121 217 220 221 0 
-30 1 123 -2 221 0 
-47 67 71 153 221 0 
-13 19 -48 15 52 68 79 89 91 109 122 132 174 222 0 
-49 -17 84 90 103 106 138 139 172 183 186 199 221 0 
-50 57 134 222 0 
-51 -52 15 48 68 79 89 91 109 122 132 174 222 0 
-51 -4 -15 48 52 68 79 89 91 109 122 132 174 222 0 
-52 15 48 68 79 89 91 109 122 132 174 222 0 
-15 48 52 68 79 89 91 109 122 132 174 -53 221 0 
-40 101 221 0 
-15 48 52 68 79 89 91 109 122 132 174 -54 221 0 
-55 238 0 
-55 239 0 
-56 74 81 92 100 215 219 -15 48 52 68 79 89 91 109 122 132 174 224 0 
-56 74 81 92 100 215 219 223 0 
-55 240 0 
-10 124 221 0 
-57 50 134 -9 37 66 93 95 107 116 175 208 212 218 222 0 
-58 129 147 231 0 
-59 226 0 
-60 236 0 
-61 191 241 0 
-12 62 226 0 
-27 231 0 
-62 12 226 0 
-39 226 0 
-63 -5 221 0 
-13 19 -6 20 24 64 73 88 126 140 145 148 152 187 196 202 209 -15 48 52 68 79 89 91 109 122 132 174 222 0 
-64 6 20 24 73 88 126 140 145 148 152 187 196 202 209 232 0 
-59 -65 228 0 
-49 225 0 
-66 9 37 93 95 107 116 175 208 212 218 242 0 
-61 191 243 0 
-19 13 -5 221 0 
-67 47 71 153 231 0 
-15 48 52 68 79 89 91 109 122 132 174 222 0 
-68 15 48 52 79 89 91 109 122 132 174 221 0 
-69 244 0 
-70 221 0 
-68 15 48 52 79 89 91 109 122 132 174 -71 47 67 153 244 0 
-71 47 67 153 244 0 
-72 245 0 
-73 6 20 24 64 88 126 140 145 148 152 187 196 202 209 -7 45 46 85 104 113 151 161 189 246 0 
-74 56 81 92 100 215 219 247 0 
-51 -40 101 -66 9 37 93 95 107 116 175 208 212 218 242 0 
-75 221 0 
-76 18 21 34 35 77 78 156 221 0 
-21 18 34 35 76 77 78 156 221 0 
-77 18 21 34 35 76 78 156 221 0 
-78 18 21 34 35 76 77 156 221 0 
-79 15 48 52 68 89 91 109 122 132 174 221 0 
-80 86 114 117 120 168 173 188 221 0 
-81 56 74 92 100 215 219 222 0 
-46 7 45 85 104 113 151 161 189 237 0 
-82 169 180 182 221 0 
-83 99 118 222 0 
-84 17 90 103 106 138 139 172 183 186 199 237 0 
-43 -85 7 45 46 104 113 151 161 189 221 0 
-86 80 114 117 120 168 173 188 221 0 
-87 94 119 167 171 221 0 
-88 6 20 24 64 73 126 140 145 148 152 187 196 202 209 237 0 
-89 15 48 52 68 79 91 109 122 132 174 237 0 
-90 17 84 103 106 138 139 172 183 186 199 222 0 
-81 56 74 92 100 215 219 237 0 
-91 15 48 52 68 79 89 109 122 132 174 221 0 
-92 56 74 81 100 215 219 221 0 
-10 124 -93 9 37 66 95 107 116 175 208 212 218 221 0 
-15 48 52 68 79 89 91 109 122 132 174 -94 87 119 167 171 221 0 
-95 9 37 66 93 107 116 175 208 212 218 237 0 
-96 115 125 142 149 221 0 
-97 234 0 
-98 -99 83 118 -87 94 119 167 171 221 0 
-10 124 -100 56 74 81 92 215 219 221 0 
-81 56 74 92 100 215 219 232 0 
-30 1 123 -28 221 0 
-28 221 0 
-40 101 248 0 
-98 221 0 
-38 241 0 
-38 243 0 
-101 40 -102 8 243 0 
-103 17 84 90 106 138 139 172 183 186 199 -92 56 74 81 100 215 219 241 0 
-92 56 74 81 100 215 219 241 0 
-65 241 0 
-65 -104 7 45 46 85 113 151 161 189 243 0 
-105 -106 17 84 90 103 138 139 172 183 186 199 249 0 
-107 9 37 66 93 95 116 175 208 212 218 249 0 
-19 13 -106 17 84 90 103 138 139 172 183 186 199 249 0 
-108 228 0 
-109 15 48 52 68 79 89 91 122 132 174 222 0 
-40 101 -48 15 52 68 79 89 91 109 122 132 174 222 0 
-110 222 0 
-51 -111 221 0 
-13 19 -112 221 0 
-6 20 24 64 73 88 126 140 145 148 152 187 196 202 209 -113 7 45 46 85 104 151 161 189 222 0 
-70 230 0 
-114 80 86 117 120 168 173 188 221 0 
-115 96 125 142 149 237 0 
-116 9 37 66 93 95 107 175 208 212 218 221 0 
-116 9 37 66 93 95 107 175 208 212 218 222 0 
-117 80 86 114 120 168 173 188 221 0 
-118 83 99 250 0 
-15 48 52 68 79 89 91 109 122 132 174 -119 87 94 167 171 221 0 
-120 80 86 114 117 168 173 188 221 0 
-121 32 217 220 221 0 
-75 -63 221 0 
-48 15 52 68 79 89 91 109 122 132 174 -32 121 217 220 221 0 
-122 15 48 52 68 79 89 91 109 132 174 -123 1 30 247 0 
-124 10 247 0 
-15 48 52 68 79 89 91 109 122 132 174 221 0 
-125 96 115 142 149 -122 15 48 52 68 79 89 91 109 132 174 247 0 
-101 40 -74 56 81 92 100 215 219 -126 6 20 24 64 73 88 140 145 148 152 187 196 202 209 221 0 
-96 115 125 142 149 222 0 
-45 7 46 85 104 113 151 161 189 222 0 
-127 -126 6 20 24 64 73 88 140 145 148 152 187 196 202 209 -2 221 0 
-128 -127 -123 1 30 221 0 
-2 221 0 
-128 -127 -2 221 0 
-101 40 251 0 
-128 221 0 
-129 58 147 221 0 
-51 233 0 
-57 50 134 221 0 
-57 50 134 -130 231 0 
-131 221 0 
-10 124 -70 221 0 
-113 7 45 46 85 104 151 161 189 221 0 
-132 15 48 52 68 79 89 91 109 122 174 221 0 
-133 221 0 
-134 50 57 -135 -136 -137 252 0 
-49 -47 67 71 153 221 0 
-138 17 84 90 103 106 139 172 183 186 199 236 0 
-139 17 84 90 103 106 138 172 183 186 199 -140 6 20 24 64 73 88 126 145 148 152 187 196 202 209 241 0 
-98 -141 -142 96 115 125 149 -143 23 221 0 
-144 200 -145 6 20 24 64 73 88 126 140 148 152 187 196 202 209 231 0 
-92 56 74 81 100 215 219 -146 -140 6 20 24 64 73 88 126 145 148 152 187 196 202 209 243 0 
-10 124 -51 -37 9 66 93 95 107 116 175 208 212 218 226 0 
-138 17 84 90 103 106 139 172 183 186 199 226 0 
-147 58 129 243 0 
-148 6 20 24 64 73 88 126 140 145 152 187 196 202 209 245 0 
-98 -149 96 115 125 142 -150 190 204 231 0 
-37 9 66 93 95 107 116 175 208 212 218 228 0 
-51 -15 48 52 68 79 89 91 109 122 132 174 222 0 
-151 7 45 46 85 104 113 161 189 237 0 
-152 6 20 24 64 73 88 126 140 145 148 187 196 202 209 237 0 
-40 101 237 0 
-153 47 67 71 231 0 
-81 56 74 92 100 215 219 -4 237 0 
-51 232 0 
-17 84 90 103 106 138 139 172 183 186 199 -154 221 0 
-1 30 123 -155 221 0 
-156 18 21 34 35 76 77 78 237 0 
-157 -28 222 0 
-158 -28 235 0 
-28 234 0 
-28 231 0 
-38 -159 -160 252 0 
-161 7 45 46 85 104 113 151 189 228 0 
-39 228 0 
-39 -12 62 226 0 
-161 7 45 46 85 104 113 151 189 226 0 
-43 236 0 
-92 56 74 81 100 215 219 -162 192 228 0 
-48 15 52 68 79 89 91 109 122 132 174 253 0 
-27 -28 231 0 
-163 231 0 
-164 -75 221 0 
-158 -28 221 0 
-30 1 123 -31 221 0 
-43 -28 222 0 
-134 50 57 -1 30 123 -28 221 0 
-165 -28 234 0 
-101 40 -27 -28 231 0 
-166 -30 1 123 -27 -28 221 0 
-167 87 94 119 171 221 0 
-168 80 86 114 117 120 173 188 221 0 
-155 -1 30 123 221 0 
-169 82 180 182 221 0 
-170 234 0 
-113 7 45 46 85 104 151 161 189 -28 221 0 
-65 221 0 
-171 87 94 119 167 221 0 
-172 17 84 90 103 106 138 139 183 186 199 222 0 
-117 80 86 114 120 168 173 188 221 0 
-173 80 86 114 117 120 168 188 221 0 
-15 48 52 68 79 89 91 109 122 132 174 233 0 
-174 15 48 52 68 79 89 91 109 122 132 222 0 
-116 9 37 66 93 95 107 175 208 212 218 250 0 
-175 9 37 66 93 95 107 116 208 212 218 247 0 
-176 234 0 
-177 -30 1 123 -178 221 0 
-98 -10 124 -179 -30 1 123 -28 221 0 
-81 56 74 92 100 215 219 221 0 
-180 82 169 182 221 0 
-181 237 0 
-182 82 169 180 221 0 
-151 7 45 46 85 104 113 161 189 -28 237 0 
-183 17 84 90 103 106 138 139 172 186 199 -45 7 46 85 104 113 151 161 189 -184 221 0 
-185 231 0 
-2 235 0 
-49 -15 48 52 68 79 89 91 109 122 132 174 221 0 
-13 19 -4 -45 7 46 85 104 113 151 161 189 222 0 
-4 -15 48 52 68 79 89 91 109 122 132 174 222 0 
-186 17 84 90 103 106 138 139 172 183 199 -145 6 20 24 64 73 88 126 140 148 152 187 196 202 209 231 0 
-51 -57 50 134 -15 48 52 68 79 89 91 109 122 132 174 222 0 
-10 124 -187 6 20 24 64 73 88 126 140 145 148 152 196 202 209 221 0 
-15 48 52 68 79 89 91 109 122 132 174 -188 80 86 114 117 120 168 173 221 0 
-189 7 45 46 85 104 113 151 161 221 0 
-90 17 84 103 106 138 139 172 183 186 199 -190 150 204 222 0 
-174 15 48 52 68 79 89 91 109 122 132 237 0 
-191 61 241 0 
-192 162 -193 240 0 
-38 -140 6 20 24 64 73 88 126 145 148 152 187 196 202 209 243 0 
-49 -92 56 74 81 100 215 219 243 0 
-92 56 74 81 100 215 219 228 0 
-194 221 0 
-195 -196 6 20 24 64 73 88 126 140 145 148 152 187 202 209 252 0 
-197 -198 252 0 
-11 236 0 
-199 17 84 90 103 106 138 139 172 183 186 247 0 
-200 144 244 0 
-25 226 0 
-201 -58 129 147 231 0 
-51 -174 15 48 52 68 79 89 91 109 122 132 -202 6 20 24 64 73 88 126 140 145 148 152 187 196 209 242 0 
-27 -58 129 147 231 0 
-17 84 90 103 106 138 139 172 183 186 199 -5 221 0 
-203 225 0 
-27 -204 150 190 231 0 
-65 -25 228 0 
-205 239 0 
-206 231 0 
-10 124 -51 -13 19 -207 221 0 
-17 84 90 103 106 138 139 172 183 186 199 -168 80 86 114 117 120 173 188 221 0 
-57 50 134 -90 17 84 103 106 138 139 172 183 186 199 222 0 
-13 19 237 0 
-10 124 -113 7 45 46 85 104 151 161 189 222 0 
-90 17 84 103 106 138 139 172 183 186 199 221 0 
-49 232 0 
-158 -28 234 0 
-101 40 -208 9 37 66 93 95 107 116 175 212 218 227 0 
-187 6 20 24 64 73 88 126 140 145 148 152 196 202 209 221 0 
-201 231 0 
-209 6 20 24 64 73 88 126 140 145 148 152 187 196 202 236 0 
-210 -211 -15 48 52 68 79 89 91 109 122 132 174 -212 9 37 66 93 95 107 116 175 208 218 254 0 
-46 7 45 85 104 113 151 161 189 -202 6 20 24 64 73 88 126 140 145 148 152 187 196 209 237 0 
-49 -15 48 52 68 79 89 91 109 122 132 174 -207 221 0 
-53 -5 221 0 
-140 6 20 24 64 73 88 126 145 148 152 187 196 202 209 -38 243 0 
-213 -30 1 123 221 0 
-214 255 0 
-215 56 74 81 92 100 219 -216 252 0 
-140 6 20 24 64 73 88 126 145 148 152 187 196 202 209 -38 241 0 
-33 251 0 
-98 -28 221 0 
-34 18 21 35 76 77 78 156 233 0 
-32 121 217 220 221 0 
-217 32 121 220 221 0 
-19 13 231 0 
-165 234 0 
-218 9 37 66 93 95 107 116 175 208 212 245 0 
-219 56 74 81 92 100 215 223 0 
-219 56 74 81 92 100 215 256 0 
-57 50 134 222 0 
-155 221 0 
-10 124 231 0 
-171 87 94 119 167 221 0 
-220 32 121 217 221 0 
-207 221 0 
